NAME : XML100_1254_04
DIMENSION : 101
NB_CLUSTERS : 6
CLUSTERING_ALG : KMedoids
CLUSTERING_PARAMS : k(5)
CLUSTERS
1 0
2 22 36 38 51 52 71 78 85 86 91 95
3 1 3 8 11 15 26 28 31 41 43 48 49 55 57 61 64 76 77 79 88 89 93 98 99 100
4 5 14 16 27 32 42 60 66 69 87 96
5 2 6 13 19 37 39 44 45 47 50 58 62 63 70 83 97
6 4 7 9 10 12 17 18 20 21 23 24 25 29 30 33 34 35 40 46 53 54 56 59 65 67 68 72 73 74 75 80 81 82 84 90 92 94
EOF